Route #1:
Route #2: 19 24
Route #3: 15
Route #4: 11 23 5 13 1
Route #5: 3 18 8 29 22 12
Route #6: 17 21 2 28
Route #7: 16
Route #8: 30 4 10 9 14 25
Route #9: 6
Route #10: 20
Route #11: 27 26
Route #12: 7 31

Cost: 2141.103873080999
